50 15
4 35 28 38 48
8 45 36 28 9 21 40 14 42
5 29 10 12 16 34
5 19 39 30 24 2
5 28 38 21 24 43
8 36 48 49 11 12 32 15 34
3 8 23 33
4 29 39 13 15
6 35 4 20 40 41 1
3 46 33 25
3 35 19 7
3 17 48 40
3 35 15 25
8 18 8 49 20 30 41 42 2
8 17 44 4 30 32 50 24 16
